TOUR_SECTION
91
2
80
108
82
165
148
140
32
30
75
182
116
46
99
98
184
190
106
44
121
169
197
60
104
181
55
35
185
43
26
36
117
150
178
21
84
69
189
83
115
109
61
63
194
23
125
1
193
168
94
22
62
199
134
52
156
107
93
59
152
56
51
196
50
188
195
192
200
92
145
95
39
76
7
133
136
187
149
86
160
127
144
123
103
137
87
175
173
89
19
176
155
31
166
163
88
77
141
72
102
167
54
97
158
20
11
33
29
177
45
42
78
124
114
79
81
191
64
147
146
139
49
143
27
122
28
174
12
74
105
161
6
198
164
132
67
111
172
58
16
5
129
68
154
153
151
13
90
113
17
112
53
186
183
159
24
3
128
179
96
37
66
40
131
15
8
162
138
180
38
126
48
170
142
18
130
47
73
57
9
70
4
34
101
25
10
118
41
110
100
120
14
65
157
135
171
71
85
119
-1
EOF